50

100 30 303
99 17 417
98 18 314
96 9 435
94 4 323
92 10 291
90 18 371
89 26 406
89 24 365
89 25 367
87 5 265
86 24 293
81 24 420
80 19 401
78 17 265
77 19 308
74 9 391
74 23 319
72 12 405
72 2 373
63 12 248
62 9 355
60 9 330
60 13 415
55 10 437
55 16 305
54 12 324
53 12 323
50 14 274
50 15 440
46 7 411
46 5 382
45 6 352
42 2 448
42 3 180
41 9 435
38 8 128
35 5 189
34 1 424
33 3 252
33 5 145
32 4 445
28 9 225
28 7 430
27 3 387
26 8 170
23 4 287
21 3 134
21 3 228
20 4 385
